0 0 0 0
0 1 2 0
0 2 0 0
0 3 1 4
0 4 0 4
0 5 1 4
0 6 0 5
0 7 2 4
0 8 2 13
0 9 1 5
0 10 0 10
0 11 0 10
0 12 0 15
0 13 1 16
0 14 1 13
0 15 1 10
0 16 1 15
0 17 0 9
0 18 0 20
0 19 1 16
0 20 0 16
0 21 1 20
0 22 0 21
0 23 2 23
0 24 0 25
0 25 0 32
0 26 2 23
0 27 1 23
0 28 0 33
0 29 2 20
0 30 0 33
0 31 0 35
